words_hard_train/8293.qaiger
aag 102 15 0 1 87
2
4
12
14
18
20
26
28
32
56
58
70
72
84
86
205
6 2 4
8 3 5
10 7 9
16 12 15
22 18 21
24 17 23
30 26 29
34 31 33
36 24 34
38 19 20
40 37 39
42 27 28
44 43 12
46 43 15
48 45 47
50 48 17
52 50 23
54 40 53
60 56 59
62 57 58
64 61 63
66 55 64
68 67 63
74 70 73
76 71 72
78 75 77
80 69 78
82 81 77
88 84 87
90 85 86
92 89 91
94 83 92
96 95 91
98 11 97
100 10 96
102 99 101
104 36 49
106 104 39
108 54 65
110 109 67
112 106 111
114 68 79
116 115 81
118 112 117
120 82 93
122 121 95
124 118 123
126 102 124
128 107 110
130 129 113
132 131 57
134 130 56
136 50 21
138 51 20
140 137 139
142 140 19
144 27 14
146 145 47
148 146 35
150 42 14
152 151 47
154 153 12
156 149 155
158 156 141
160 143 159
162 135 161
164 133 163
166 113 116
168 167 119
170 168 70
172 165 171
174 169 71
176 173 175
178 119 122
180 179 125
182 180 84
184 177 183
186 181 85
188 185 187
190 188 3
192 126 191
194 189 2
196 195 127
198 193 197
200 103 125
202 200 191
204 199 203
i0 2 y1[7]
i1 1 x1[7]
i2 2 y1[2]
i3 1 x1[2]
i4 2 y1[3]
i5 1 x1[3]
i6 2 y1[1]
i7 1 x1[1]
i8 2 y1[0]
i9 2 y1[4]
i10 1 x1[4]
i11 2 y1[5]
i12 1 x1[5]
i13 2 y1[6]
i14 1 x1[6]
o0 bv[0]
c
simplified
  >
    add
      invert
        2 y1
      or
        1
        1 x1
    2 y1
