words_hard_train/8293.qaiger.qdimacs
p cnf 102 262
a 2 36 7 10 43 14 29 0
e 1 3 4 5 6 8 9 11 12 13 15 16 17 18 19 20 21 22 23 24 25 26 27 28 30 31 32 33 34 35 37 38 39 40 41 42 44 45 46 47 48 49 50 51 52 53 54 55 56 57 58 59 60 61 62 63 64 65 66 67 68 69 70 71 72 73 74 75 76 77 78 79 80 81 82 83 84 85 86 87 88 89 90 91 92 93 94 95 96 97 98 99 100 101 102 0
-1 -2 3 0
1 -3 0
2 -3 0
1 2 4 0
-1 -4 0
-2 -4 0
3 4 5 0
-3 -5 0
-4 -5 0
-6 7 8 0
6 -8 0
-7 -8 0
-9 10 11 0
9 -11 0
-10 -11 0
8 11 12 0
-8 -12 0
-11 -12 0
-13 14 15 0
13 -15 0
-14 -15 0
15 16 17 0
-15 -17 0
-16 -17 0
-12 -17 18 0
12 -18 0
17 -18 0
9 -10 19 0
-9 -19 0
10 -19 0
18 19 20 0
-18 -20 0
-19 -20 0
13 -14 21 0
-13 -21 0
14 -21 0
21 -6 22 0
-21 -22 0
6 -22 0
21 7 23 0
-21 -23 0
-7 -23 0
22 23 24 0
-22 -24 0
-23 -24 0
-24 8 25 0
24 -25 0
-8 -25 0
-25 11 26 0
25 -26 0
-11 -26 0
-20 26 27 0
20 -27 0
-26 -27 0
-28 29 30 0
28 -30 0
-29 -30 0
28 -29 31 0
-28 -31 0
29 -31 0
30 31 32 0
-30 -32 0
-31 -32 0
27 -32 33 0
-27 -33 0
32 -33 0
33 31 34 0
-33 -34 0
-31 -34 0
-35 36 37 0
35 -37 0
-36 -37 0
35 -36 38 0
-35 -38 0
36 -38 0
37 38 39 0
-37 -39 0
-38 -39 0
34 -39 40 0
-34 -40 0
39 -40 0
40 38 41 0
-40 -41 0
-38 -41 0
-42 43 44 0
42 -44 0
-43 -44 0
42 -43 45 0
-42 -45 0
43 -45 0
44 45 46 0
-44 -46 0
-45 -46 0
41 -46 47 0
-41 -47 0
46 -47 0
47 45 48 0
-47 -48 0
-45 -48 0
5 48 49 0
-5 -49 0
-48 -49 0
-5 -48 50 0
5 -50 0
48 -50 0
49 50 51 0
-49 -51 0
-50 -51 0
-18 24 52 0
18 -52 0
-24 -52 0
-52 19 53 0
52 -53 0
-19 -53 0
-27 32 54 0
27 -54 0
-32 -54 0
54 33 55 0
-54 -55 0
-33 -55 0
-53 55 56 0
53 -56 0
-55 -56 0
-34 39 57 0
34 -57 0
-39 -57 0
57 40 58 0
-57 -58 0
-40 -58 0
-56 58 59 0
56 -59 0
-58 -59 0
-41 46 60 0
41 -60 0
-46 -60 0
60 47 61 0
-60 -61 0
-47 -61 0
-59 61 62 0
59 -62 0
-61 -62 0
-51 -62 63 0
51 -63 0
62 -63 0
53 -55 64 0
-53 -64 0
55 -64 0
64 56 65 0
-64 -65 0
-56 -65 0
65 28 66 0
-65 -66 0
-28 -66 0
-65 -28 67 0
65 -67 0
28 -67 0
-25 10 68 0
25 -68 0
-10 -68 0
25 -10 69 0
-25 -69 0
10 -69 0
68 69 70 0
-68 -70 0
-69 -70 0
-70 9 71 0
70 -71 0
-9 -71 0
13 -7 72 0
-13 -72 0
7 -72 0
72 23 73 0
-72 -73 0
-23 -73 0
-73 17 74 0
73 -74 0
-17 -74 0
-21 -7 75 0
21 -75 0
7 -75 0
75 23 76 0
-75 -76 0
-23 -76 0
76 -6 77 0
-76 -77 0
6 -77 0
74 77 78 0
-74 -78 0
-77 -78 0
-78 70 79 0
78 -79 0
-70 -79 0
71 79 80 0
-71 -80 0
-79 -80 0
67 80 81 0
-67 -81 0
-80 -81 0
66 81 82 0
-66 -82 0
-81 -82 0
56 -58 83 0
-56 -83 0
58 -83 0
83 59 84 0
-83 -84 0
-59 -84 0
-84 -35 85 0
84 -85 0
35 -85 0
82 85 86 0
-82 -86 0
-85 -86 0
84 35 87 0
-84 -87 0
-35 -87 0
86 87 88 0
-86 -88 0
-87 -88 0
59 -61 89 0
-59 -89 0
61 -89 0
89 62 90 0
-89 -90 0
-62 -90 0
-90 -42 91 0
90 -91 0
42 -91 0
88 91 92 0
-88 -92 0
-91 -92 0
90 42 93 0
-90 -93 0
-42 -93 0
92 93 94 0
-92 -94 0
-93 -94 0
-94 1 95 0
94 -95 0
-1 -95 0
-63 95 96 0
63 -96 0
-95 -96 0
94 -1 97 0
-94 -97 0
1 -97 0
97 63 98 0
-97 -98 0
-63 -98 0
96 98 99 0
-96 -99 0
-98 -99 0
51 62 100 0
-51 -100 0
-62 -100 0
-100 95 101 0
100 -101 0
-95 -101 0
99 101 102 0
-99 -102 0
-101 -102 0
-102 0
